Route #1: 12 29 24 80 68 77 50
Route #2: 18 83 84 61 91 100 59 96
Route #3: 87 43 14 16 17 5
Route #4: 88 30 65 71 9 51 0 53 73 74 56 4 55 25 54 26
Route #5: 27 69 81 33 76 28 0 8 46 47 48 82 52
Route #6: 92 42 15 23 67 39 0 40 21 72 75 22 41 57 2 0 37 98 85 93 60 89
Route #7: 45 86 38 44 99 6 0 3 79 78 34 35 66 20 0 94 95 97 13 58
Route #8: 62 11 64 36 49 19 7 0 31 10 63 90 32 70 1
Cost: 12837
Optimal: True
